243/surrogate_problem/sol/surrogate2_6.sol
# Solution for model problem_
# Objective value = 9.9504652161310121e+04
x(0_0) 0
x(0_1) 0
x(0_2) 0
x(0_3) 0
x(0_4) 0
x(0_5) 0
x(0_6) 0
x(0_7) 0
x(0_8) 0
x(0_9) 0
x(0_10) 0
x(0_11) 1
x(0_12) 0
x(0_13) 0
x(0_14) 0
x(0_15) 0
x(0_16) 0
x(0_17) 0
x(0_18) 0
x(0_19) 0
x(1_20) 0
x(1_21) 0
x(1_22) 0
x(1_23) 0
x(1_24) 0
x(1_25) 0
x(1_26) 0
x(1_27) 0
x(1_28) 0
x(1_29) 0
x(1_30) 0
x(1_31) 0
x(1_32) 0
x(1_33) 1
x(2_34) 0
x(2_35) 1
x(2_36) 0
x(2_37) 0
x(2_38) 0
x(2_39) 0
x(2_40) 0
x(2_41) 0
x(2_42) 0
x(2_43) 0
x(2_44) 0
x(3_45) 0
x(3_46) 0
x(3_47) 0
x(3_48) 0
x(3_49) 0
x(3_50) 0
x(3_51) 0
x(3_52) 1
x(3_53) 0
x(3_54) 0
x(3_55) 0
x(3_56) 0
x(4_57) 0
x(4_58) 0
x(4_59) 0
x(4_60) 0
x(4_61) 0
x(4_62) 0
x(4_63) 0
x(4_64) 0
x(4_65) 0
x(4_66) 0
x(4_67) 0
x(4_68) 0
x(4_69) 0
x(4_70) 0
x(4_71) 0
x(4_72) 0
x(4_73) 0
x(4_74) 0
x(4_75) 1
x(4_76) 0
x(5_77) 0
x(5_78) 0
x(5_79) 0
x(5_80) 0
x(5_81) 0
x(5_82) 0
x(5_83) 0
x(5_84) 0
x(5_85) 0
x(5_86) 0
x(5_87) 1
x(5_88) 0
x(5_89) 0
x(5_90) 0
x(6_91) 1
x(6_92) 0
x(6_93) 0
x(6_94) 0
x(6_95) 0
x(6_96) 0
x(6_97) 0
x(6_98) 0
x(6_99) 0
x(6_100) 0
x(6_101) 0
x(6_102) 0
x(6_103) 0
x(7_104) 0
x(7_105) 0
x(7_106) 1
x(7_107) 0
x(7_108) 0
x(7_109) 0
x(7_110) 0
x(7_111) 0
x(7_112) 0
x(7_113) 0
x(7_114) 0
x(7_115) 0
x(7_116) 0
x(7_117) 0
x(7_118) 0
x(8_119) 0
x(8_120) 0
x(8_121) 0
x(8_122) 0
x(8_123) 0
x(8_124) 0
x(8_125) 0
x(8_126) 0
x(8_127) 0
x(8_128) 0
x(8_129) 0
x(8_130) 0
x(8_131) 0
x(8_132) 0
x(8_133) 0
x(8_134) 0
x(8_135) 0
x(8_136) 0
x(8_137) 1
x(8_138) 0
x(9_139) 1
x(9_140) 0
x(9_141) 0
x(9_142) 0
x(9_143) 0
x(9_144) 0
x(9_145) 0
x(9_146) 0
x(9_147) 0
x(9_148) 0
x(9_149) 0
x(9_150) 0
x(9_151) 0
x(9_152) 0
x(9_153) 0
x(10_154) 1
x(10_155) 0
x(10_156) 0
x(10_157) 0
x(10_158) 0
x(10_159) 0
x(10_160) 0
x(10_161) 0
x(10_162) 0
x(10_163) 0
x(10_164) 0
x(10_165) 0
x(10_166) 0
x(10_167) 0
x(10_168) 0
x(10_169) 0
x(10_170) 0
x(10_171) 0
x(10_172) 0
x(10_173) 0
x(11_174) 0
x(11_175) 1
x(11_176) 0
x(11_177) 0
x(11_178) 0
x(11_179) 0
x(11_180) 0
x(11_181) 0
x(11_182) 0
x(11_183) 0
x(11_184) 0
x(11_185) 0
x(11_186) 0
x(11_187) 0
x(11_188) 0
x(11_189) 0
x(12_190) 0
x(12_191) 0
x(12_192) 0
x(12_193) 0
x(12_194) 0
x(12_195) 0
x(12_196) 0
x(12_197) 0
x(12_198) 0
x(12_199) 0
x(12_200) 1
x(12_201) 0
x(12_202) 0
x(12_203) 0
x(13_204) 0
x(13_205) 0
x(13_206) 0
x(13_207) 1
x(13_208) 0
x(13_209) 0
x(13_210) 0
x(13_211) 0
x(13_212) 0
x(13_213) 0
x(13_214) 0
x(13_215) 0
x(13_216) 0
x(13_217) 0
x(13_218) 0
x(13_219) 0
x(14_220) 0
x(14_221) 0
x(14_222) 1
x(14_223) 0
x(14_224) 0
x(14_225) 0
x(14_226) 0
x(14_227) 0
x(14_228) 0
x(14_229) 0
x(14_230) 0
x(14_231) 0
x(15_232) 0
x(15_233) 0
x(15_234) 0
x(15_235) 0
x(15_236) 0
x(15_237) 0
x(15_238) 0
x(15_239) 0
x(15_240) 1
x(15_241) 0
x(15_242) 0
x(15_243) 0
x(16_244) 0
x(16_245) 0
x(16_246) 0
x(16_247) 0
x(16_248) 0
x(16_249) 0
x(16_250) 0
x(16_251) 0
x(16_252) 0
x(16_253) 0
x(16_254) 1
x(16_255) 0
x(16_256) 0
x(16_257) 0
x(16_258) 0
x(16_259) 0
x(16_260) 0
x(16_261) 0
x(16_262) 0
x(17_263) 0
x(17_264) 0
x(17_265) 0
x(17_266) 0
x(17_267) 0
x(17_268) 0
x(17_269) 0
x(17_270) 0
x(17_271) 0
x(17_272) 0
x(17_273) 0
x(17_274) 0
x(17_275) 1
x(17_276) 0
x(17_277) 0
x(18_278) 0
x(18_279) 1
x(18_280) 0
x(18_281) 0
x(18_282) 0
x(18_283) 0
x(18_284) 0
x(18_285) 0
x(18_286) 0
x(18_287) 0
x(18_288) 0
x(18_289) 0
x(18_290) 0
x(18_291) 0
x(18_292) 0
x(18_293) 0
x(18_294) 0
x(18_295) 0
x(18_296) 0
x(18_297) 0
x(19_298) 1
x(19_299) 0
x(19_300) 0
x(19_301) 0
x(19_302) 0
x(19_303) 0
x(19_304) 0
x(19_305) 0
x(19_306) 0
x(19_307) 0
x(19_308) 0
x(19_309) 0
x(19_310) 0
x(19_311) 0
x(19_312) 0
x(20_313) 0
x(20_314) 0
x(20_315) 0
x(20_316) 0
x(20_317) 0
x(20_318) 0
x(20_319) 0
x(20_320) 1
x(20_321) 0
x(20_322) 0
x(20_323) 0
x(20_324) 0
x(20_325) 0
x(20_326) 0
x(20_327) 0
x(20_328) 0
x(20_329) 0
x(20_330) 0
x(20_331) 0
x(20_332) 0
x(21_333) 0
x(21_334) 0
x(21_335) 0
x(21_336) 0
x(21_337) 0
x(21_338) 0
x(21_339) 1
x(21_340) 0
x(21_341) 0
x(21_342) 0
x(21_343) 0
x(21_344) 0
x(22_345) 0
x(22_346) 0
x(22_347) 0
x(22_348) 0
x(22_349) 0
x(22_350) 0
x(22_351) 0
x(22_352) 1
x(22_353) 0
x(22_354) 0
x(22_355) 0
x(23_356) 0
x(23_357) 0
x(23_358) 0
x(23_359) 0
x(23_360) 0
x(23_361) 0
x(23_362) 0
x(23_363) 1
x(23_364) 0
x(23_365) 0
x(23_366) 0
x(23_367) 0
x(23_368) 0
x(23_369) 0
x(23_370) 0
x(23_371) 0
x(23_372) 0
x(23_373) 0
x(24_374) 0
x(24_375) 1
x(24_376) 0
x(24_377) 0
x(24_378) 0
x(24_379) 0
x(24_380) 0
x(24_381) 0
x(24_382) 0
x(24_383) 0
x(24_384) 0
x(24_385) 0
x(24_386) 0
x(24_387) 0
x(24_388) 0
x(24_389) 0
x(24_390) 0
x(24_391) 0
x(24_392) 0
x(24_393) 0
x(25_394) 0
x(25_395) 0
x(25_396) 0
x(25_397) 0
x(25_398) 0
x(25_399) 0
x(25_400) 0
x(25_401) 1
x(25_402) 0
x(25_403) 0
x(25_404) 0
x(25_405) 0
x(25_406) 0
x(25_407) 0
x(26_408) 0
x(26_409) 0
x(26_410) 0
x(26_411) 0
x(26_412) 0
x(26_413) 1
x(26_414) 0
x(26_415) 0
x(26_416) 0
x(26_417) 0
x(26_418) 0
x(26_419) 0
x(26_420) 0
x(26_421) 0
x(26_422) 0
x(27_423) 0
x(27_424) 1
x(27_425) 0
x(27_426) 0
x(27_427) 0
x(27_428) 0
x(27_429) 0
x(27_430) 0
x(27_431) 0
x(27_432) 0
x(27_433) 0
x(27_434) 0
x(27_435) 0
x(28_436) 0
x(28_437) 0
x(28_438) 0
x(28_439) 0
x(28_440) 0
x(28_441) 0
x(28_442) 0
x(28_443) 0
x(28_444) 0
x(28_445) 0
x(28_446) 0
x(28_447) 0
x(28_448) 1
x(29_449) 0
x(29_450) 0
x(29_451) 0
x(29_452) 0
x(29_453) 0
x(29_454) 0
x(29_455) 0
x(29_456) 0
x(29_457) 0
x(29_458) 0
x(29_459) 0
x(29_460) 0
x(29_461) 1
x(29_462) 0
x(30_463) 1
x(30_464) 0
x(30_465) 0
x(30_466) 0
x(30_467) 0
x(30_468) 0
x(30_469) 0
x(30_470) 0
x(30_471) 0
x(30_472) 0
x(30_473) 0
x(30_474) 0
x(30_475) 0
x(31_476) 1
x(31_477) 0
x(31_478) 0
x(31_479) 0
x(31_480) 0
x(31_481) 0
x(31_482) 0
x(31_483) 0
x(31_484) 0
x(31_485) 0
x(31_486) 0
x(31_487) 0
x(31_488) 0
x(31_489) 0
x(31_490) 0
x(31_491) 0
x(31_492) 0
x(31_493) 0
x(32_494) 0
x(32_495) 0
x(32_496) 0
x(32_497) 0
x(32_498) 0
x(32_499) 0
x(32_500) 0
x(32_501) 0
x(32_502) 0
x(32_503) 0
x(32_504) 0
x(32_505) 1
x(32_506) 0
x(32_507) 0
x(32_508) 0
x(32_509) 0
x(32_510) 0
x(32_511) 0
x(32_512) 0
x(32_513) 0
x(33_514) 0
x(33_515) 0
x(33_516) 0
x(33_517) 0
x(33_518) 0
x(33_519) 0
x(33_520) 0
x(33_521) 0
x(33_522) 1
x(33_523) 0
x(33_524) 0
x(33_525) 0
x(33_526) 0
x(33_527) 0
x(33_528) 0
x(33_529) 0
x(33_530) 0
x(33_531) 0
x(34_532) 0
x(34_533) 0
x(34_534) 0
x(34_535) 0
x(34_536) 0
x(34_537) 0
x(34_538) 0
x(34_539) 0
x(34_540) 0
x(34_541) 1
x(34_542) 0
x(34_543) 0
x(34_544) 0
x(34_545) 0
x(34_546) 0
x(34_547) 0
x(34_548) 0
x(35_549) 0
x(35_550) 0
x(35_551) 0
x(35_552) 0
x(35_553) 0
x(35_554) 0
x(35_555) 0
x(35_556) 0
x(35_557) 1
x(35_558) 0
x(35_559) 0
x(35_560) 0
x(35_561) 0
x(35_562) 0
x(35_563) 0
x(35_564) 0
x(35_565) 0
x(36_566) 0
x(36_567) 0
x(36_568) 0
x(36_569) 0
x(36_570) 0
x(36_571) 0
x(36_572) 0
x(36_573) 1
x(36_574) 0
x(36_575) 0
x(36_576) 0
x(36_577) 0
x(36_578) 0
x(36_579) 0
x(36_580) 0
x(36_581) 0
x(37_582) 0
x(37_583) 0
x(37_584) 0
x(37_585) 0
x(37_586) 0
x(37_587) 0
x(37_588) 0
x(37_589) 0
x(37_590) 0
x(37_591) 0
x(37_592) 1
x(37_593) 0
x(37_594) 0
x(37_595) 0
x(37_596) 0
x(38_597) 0
x(38_598) 0
x(38_599) 0
x(38_600) 0
x(38_601) 0
x(38_602) 0
x(38_603) 0
x(38_604) 0
x(38_605) 1
x(38_606) 0
x(38_607) 0
x(38_608) 0
x(38_609) 0
x(38_610) 0
x(38_611) 0
x(39_612) 0
x(39_613) 0
x(39_614) 0
x(39_615) 1
x(39_616) 0
x(39_617) 0
x(39_618) 0
x(39_619) 0
x(39_620) 0
x(39_621) 0
x(39_622) 0
x(39_623) 0
x(39_624) 0
x(39_625) 0
x(39_626) 0
x(39_627) 0
x(39_628) 0
x(39_629) 0
x(39_630) 0
x(40_631) 0
x(40_632) 0
x(40_633) 1
x(40_634) 0
x(40_635) 0
x(40_636) 0
x(40_637) 0
x(40_638) 0
x(40_639) 0
x(40_640) 0
x(40_641) 0
x(40_642) 0
x(40_643) 0
x(40_644) 0
x(40_645) 0
x(40_646) 0
x(40_647) 0
x(41_648) 0
x(41_649) 0
x(41_650) 0
x(41_651) 0
x(41_652) 0
x(41_653) 0
x(41_654) 1
x(41_655) 0
x(41_656) 0
x(41_657) 0
x(41_658) 0
x(41_659) 0
x(41_660) 0
x(41_661) 0
x(41_662) 0
x(41_663) 0
x(41_664) 0
x(42_665) 1
x(42_666) 0
x(42_667) 0
x(42_668) 0
x(42_669) 0
x(42_670) 0
x(42_671) 0
x(42_672) 0
x(42_673) 0
x(42_674) 0
x(42_675) 0
x(43_676) 0
x(43_677) 0
x(43_678) 1
x(43_679) 0
x(43_680) 0
x(43_681) 0
x(43_682) 0
x(43_683) 0
x(43_684) 0
x(43_685) 0
x(44_686) 0
x(44_687) 0
x(44_688) 0
x(44_689) 0
x(44_690) 0
x(44_691) 0
x(44_692) 0
x(44_693) 0
x(44_694) 0
x(44_695) 1
x(44_696) 0
x(44_697) 0
x(45_698) 0
x(45_699) 0
x(45_700) 0
x(45_701) 0
x(45_702) 0
x(45_703) 0
x(45_704) 0
x(45_705) 1
x(45_706) 0
x(45_707) 0
x(45_708) 0
x(45_709) 0
x(45_710) 0
x(45_711) 0
x(45_712) 0
x(46_713) 0
x(46_714) 0
x(46_715) 1
x(46_716) 0
x(46_717) 0
x(46_718) 0
x(46_719) 0
x(46_720) 0
x(46_721) 0
x(46_722) 0
x(46_723) 0
x(46_724) 0
x(46_725) 0
x(46_726) 0
x(46_727) 0
x(46_728) 0
x(46_729) 0
x(47_730) 0
x(47_731) 0
x(47_732) 0
x(47_733) 0
x(47_734) 0
x(47_735) 0
x(47_736) 0
x(47_737) 0
x(47_738) 0
x(47_739) 0
x(47_740) 0
x(47_741) 0
x(47_742) 0
x(47_743) 0
x(47_744) 1
x(47_745) 0
x(47_746) 0
x(47_747) 0
x(48_748) 0
x(48_749) 0
x(48_750) 0
x(48_751) 0
x(48_752) 0
x(48_753) 0
x(48_754) 0
x(48_755) 0
x(48_756) 0
x(48_757) 0
x(48_758) 0
x(48_759) 0
x(48_760) 0
x(48_761) 0
x(48_762) 1
x(49_763) 0
x(49_764) 0
x(49_765) 0
x(49_766) 0
x(49_767) 0
x(49_768) 0
x(49_769) 0
x(49_770) 0
x(49_771) 0
x(49_772) 1
x(50_773) 0
x(50_774) 0
x(50_775) 0
x(50_776) 0
x(50_777) 1
x(50_778) 0
x(50_779) 0
x(50_780) 0
x(50_781) 0
x(50_782) 0
x(50_783) 0
x(50_784) 0
x(50_785) 0
x(50_786) 0
x(50_787) 0
x(50_788) 0
x(51_789) 0
x(51_790) 0
x(51_791) 0
x(51_792) 0
x(51_793) 0
x(51_794) 0
x(51_795) 0
x(51_796) 0
x(51_797) 0
x(51_798) 0
x(51_799) 0
x(51_800) 0
x(51_801) 1
x(51_802) 0
x(51_803) 0
x(52_804) 0
x(52_805) 0
x(52_806) 0
x(52_807) 0
x(52_808) 1
x(52_809) 0
x(52_810) 0
x(52_811) 0
x(52_812) 0
x(52_813) 0
x(52_814) 0
x(52_815) 0
x(52_816) 0
x(52_817) 0
x(52_818) 0
x(53_819) 0
x(53_820) 1
x(53_821) 0
x(53_822) 0
x(53_823) 0
x(53_824) 0
x(53_825) 0
x(53_826) 0
x(53_827) 0
x(53_828) 0
x(53_829) 0
x(53_830) 0
x(53_831) 0
x(54_832) 1
x(54_833) 0
x(54_834) 0
x(54_835) 0
x(54_836) 0
x(54_837) 0
x(54_838) 0
x(54_839) 0
x(54_840) 0
x(54_841) 0
x(54_842) 0
x(54_843) 0
x(54_844) 0
x(54_845) 0
x(54_846) 0
x(54_847) 0
x(54_848) 0
x(54_849) 0
x(54_850) 0
x(55_851) 1
x(55_852) 0
x(55_853) 0
x(55_854) 0
x(55_855) 0
x(55_856) 0
x(55_857) 0
x(55_858) 0
x(55_859) 0
x(55_860) 0
x(55_861) 0
x(55_862) 0
x(55_863) 0
x(55_864) 0
x(56_865) 0
x(56_866) 0
x(56_867) 0
x(56_868) 0
x(56_869) 0
x(56_870) 0
x(56_871) 0
x(56_872) 0
x(56_873) 0
x(56_874) 0
x(56_875) 0
x(56_876) 0
x(56_877) 1
x(56_878) 0
x(56_879) 0
x(56_880) 0
x(56_881) 0
x(57_882) 0
x(57_883) 0
x(57_884) 0
x(57_885) 0
x(57_886) 0
x(57_887) 0
x(57_888) 0
x(57_889) 0
x(57_890) 0
x(57_891) 0
x(57_892) 1
x(57_893) 0
x(57_894) 0
x(58_895) 0
x(58_896) 0
x(58_897) 1
x(58_898) 0
x(58_899) 0
x(58_900) 0
x(58_901) 0
x(58_902) 0
x(58_903) 0
x(58_904) 0
x(58_905) 0
x(58_906) 0
x(58_907) 0
x(58_908) 0
x(58_909) 0
x(58_910) 0
x(59_911) 1
x(59_912) 0
x(59_913) 0
x(59_914) 0
x(59_915) 0
x(59_916) 0
x(59_917) 0
x(59_918) 0
x(59_919) 0
x(59_920) 0
x(59_921) 0
x(59_922) 0
x(59_923) 0
x(59_924) 0
x(59_925) 0
x(60_926) 1
x(60_927) 0
x(60_928) 0
x(60_929) 0
x(60_930) 0
x(60_931) 0
x(60_932) 0
x(60_933) 0
x(60_934) 0
x(60_935) 0
x(60_936) 0
x(60_937) 0
x(60_938) 0
x(60_939) 0
x(60_940) 0
x(60_941) 0
x(61_942) 0
x(61_943) 0
x(61_944) 0
x(61_945) 0
x(61_946) 0
x(61_947) 0
x(61_948) 1
x(61_949) 0
x(61_950) 0
x(61_951) 0
x(61_952) 0
x(61_953) 0
x(61_954) 0
x(61_955) 0
x(61_956) 0
x(61_957) 0
x(61_958) 0
x(61_959) 0
x(62_960) 0
x(62_961) 0
x(62_962) 0
x(62_963) 0
x(62_964) 0
x(62_965) 0
x(62_966) 0
x(62_967) 0
x(62_968) 0
x(62_969) 1
x(62_970) 0
x(62_971) 0
x(62_972) 0
x(62_973) 0
x(63_974) 0
x(63_975) 0
x(63_976) 0
x(63_977) 0
x(63_978) 0
x(63_979) 0
x(63_980) 0
x(63_981) 0
x(63_982) 0
x(63_983) 0
x(63_984) 0
x(63_985) 0
x(63_986) 0
x(63_987) 1
x(63_988) 0
x(63_989) 0
x(64_990) 0
x(64_991) 0
x(64_992) 0
x(64_993) 0
x(64_994) 0
x(64_995) 0
x(64_996) 0
x(64_997) 0
x(64_998) 0
x(64_999) 0
x(64_1000) 0
x(64_1001) 1
x(65_1002) 0
x(65_1003) 0
x(65_1004) 0
x(65_1005) 0
x(65_1006) 0
x(65_1007) 0
x(65_1008) 0
x(65_1009) 0
x(65_1010) 0
x(65_1011) 1
x(65_1012) 0
x(65_1013) 0
x(65_1014) 0
x(65_1015) 0
x(66_1016) 0
x(66_1017) 0
x(66_1018) 0
x(66_1019) 0
x(66_1020) 0
x(66_1021) 0
x(66_1022) 1
x(66_1023) 0
x(66_1024) 0
x(66_1025) 0
x(67_1026) 0
x(67_1027) 0
x(67_1028) 0
x(67_1029) 0
x(67_1030) 0
x(67_1031) 0
x(67_1032) 0
x(67_1033) 0
x(67_1034) 0
x(67_1035) 0
x(67_1036) 0
x(67_1037) 0
x(67_1038) 0
x(67_1039) 0
x(67_1040) 0
x(67_1041) 0
x(67_1042) 0
x(67_1043) 0
x(67_1044) 1
x(67_1045) 0
x(68_1046) 0
x(68_1047) 0
x(68_1048) 0
x(68_1049) 0
x(68_1050) 0
x(68_1051) 0
x(68_1052) 0
x(68_1053) 0
x(68_1054) 0
x(68_1055) 0
x(68_1056) 1
x(68_1057) 0
x(68_1058) 0
x(68_1059) 0
x(68_1060) 0
x(68_1061) 0
x(69_1062) 0
x(69_1063) 0
x(69_1064) 0
x(69_1065) 0
x(69_1066) 0
x(69_1067) 0
x(69_1068) 1
x(69_1069) 0
x(69_1070) 0
x(69_1071) 0
x(69_1072) 0
x(69_1073) 0
x(69_1074) 0
x(69_1075) 0
x(70_1076) 1
x(70_1077) 0
x(70_1078) 0
x(70_1079) 0
x(70_1080) 0
x(70_1081) 0
x(70_1082) 0
x(70_1083) 0
x(70_1084) 0
x(70_1085) 0
x(70_1086) 0
x(71_1087) 0
x(71_1088) 1
x(71_1089) 0
x(71_1090) 0
x(71_1091) 0
x(71_1092) 0
x(71_1093) 0
x(71_1094) 0
x(71_1095) 0
x(71_1096) 0
x(71_1097) 0
x(72_1098) 0
x(72_1099) 0
x(72_1100) 0
x(72_1101) 0
x(72_1102) 0
x(72_1103) 0
x(72_1104) 0
x(72_1105) 0
x(72_1106) 0
x(72_1107) 0
x(72_1108) 0
x(72_1109) 0
x(72_1110) 1
x(72_1111) 0
x(72_1112) 0
x(72_1113) 0
x(72_1114) 0
x(73_1115) 0
x(73_1116) 0
x(73_1117) 0
x(73_1118) 0
x(73_1119) 0
x(73_1120) 0
x(73_1121) 0
x(73_1122) 0
x(73_1123) 0
x(73_1124) 0
x(73_1125) 0
x(73_1126) 1
x(73_1127) 0
x(73_1128) 0
x(73_1129) 0
x(73_1130) 0
x(73_1131) 0
x(73_1132) 0
x(73_1133) 0
x(74_1134) 0
x(74_1135) 0
x(74_1136) 0
x(74_1137) 0
x(74_1138) 0
x(74_1139) 0
x(74_1140) 0
x(74_1141) 0
x(74_1142) 0
x(74_1143) 0
x(74_1144) 0
x(74_1145) 1
x(74_1146) 0
x(74_1147) 0
x(74_1148) 0
x(75_1149) 0
x(75_1150) 0
x(75_1151) 0
x(75_1152) 0
x(75_1153) 0
x(75_1154) 1
x(75_1155) 0
x(75_1156) 0
x(75_1157) 0
x(75_1158) 0
x(76_1159) 0
x(76_1160) 0
x(76_1161) 0
x(76_1162) 0
x(76_1163) 0
x(76_1164) 0
x(76_1165) 0
x(76_1166) 0
x(76_1167) 0
x(76_1168) 0
x(76_1169) 0
x(76_1170) 0
x(76_1171) 1
x(76_1172) 0
x(76_1173) 0
x(76_1174) 0
x(76_1175) 0
x(76_1176) 0
x(77_1177) 1
x(77_1178) 0
x(77_1179) 0
x(77_1180) 0
x(77_1181) 0
x(77_1182) 0
x(77_1183) 0
x(77_1184) 0
x(77_1185) 0
x(77_1186) 0
x(77_1187) 0
x(77_1188) 0
x(78_1189) 0
x(78_1190) 0
x(78_1191) 0
x(78_1192) 0
x(78_1193) 0
x(78_1194) 0
x(78_1195) 0
x(78_1196) 0
x(78_1197) 0
x(78_1198) 0
x(78_1199) 1
x(78_1200) 0
x(78_1201) 0
x(78_1202) 0
x(78_1203) 0
x(78_1204) 0
x(78_1205) 0
x(79_1206) 0
x(79_1207) 0
x(79_1208) 0
x(79_1209) 0
x(79_1210) 1
x(79_1211) 0
x(79_1212) 0
x(79_1213) 0
x(79_1214) 0
x(79_1215) 0
x(79_1216) 0
x(80_1217) 0
x(80_1218) 0
x(80_1219) 0
x(80_1220) 0
x(80_1221) 1
x(80_1222) 0
x(80_1223) 0
x(80_1224) 0
x(80_1225) 0
x(80_1226) 0
x(80_1227) 0
x(80_1228) 0
x(80_1229) 0
x(81_1230) 0
x(81_1231) 0
x(81_1232) 0
x(81_1233) 0
x(81_1234) 0
x(81_1235) 0
x(81_1236) 0
x(81_1237) 0
x(81_1238) 1
x(81_1239) 0
x(81_1240) 0
x(81_1241) 0
x(81_1242) 0
x(81_1243) 0
x(82_1244) 0
x(82_1245) 0
x(82_1246) 0
x(82_1247) 0
x(82_1248) 0
x(82_1249) 1
x(82_1250) 0
x(82_1251) 0
x(82_1252) 0
x(82_1253) 0
x(82_1254) 0
x(82_1255) 0
x(82_1256) 0
x(82_1257) 0
x(82_1258) 0
x(82_1259) 0
x(82_1260) 0
x(82_1261) 0
x(82_1262) 0
x(82_1263) 0
x(83_1264) 0
x(83_1265) 0
x(83_1266) 0
x(83_1267) 0
x(83_1268) 0
x(83_1269) 1
x(83_1270) 0
x(83_1271) 0
x(83_1272) 0
x(83_1273) 0
x(84_1274) 0
x(84_1275) 0
x(84_1276) 0
x(84_1277) 1
x(84_1278) 0
x(84_1279) 0
x(84_1280) 0
x(84_1281) 0
x(84_1282) 0
x(84_1283) 0
x(84_1284) 0
x(84_1285) 0
x(85_1286) 0
x(85_1287) 0
x(85_1288) 0
x(85_1289) 0
x(85_1290) 0
x(85_1291) 0
x(85_1292) 0
x(85_1293) 0
x(85_1294) 0
x(85_1295) 0
x(85_1296) 0
x(85_1297) 0
x(85_1298) 0
x(85_1299) 0
x(85_1300) 0
x(85_1301) 1
x(85_1302) 0
x(86_1303) 0
x(86_1304) 0
x(86_1305) 0
x(86_1306) 0
x(86_1307) 0
x(86_1308) 0
x(86_1309) 0
x(86_1310) 0
x(86_1311) 0
x(86_1312) 0
x(86_1313) 1
x(87_1314) 0
x(87_1315) 0
x(87_1316) 0
x(87_1317) 0
x(87_1318) 1
x(87_1319) 0
x(87_1320) 0
x(87_1321) 0
x(87_1322) 0
x(87_1323) 0
x(87_1324) 0
x(87_1325) 0
x(87_1326) 0
x_1_0 2.5062226264271885e+02
s_1_0 0
z_1_0 0
x_1_1 2.5107186421565711e+02
s_1_1 0
z_1_1 0
x_1_2 0
s_1_2 1.5162676304462366e+00
z_1_2 1
x_1_3 2.5528637699875981e+02
s_1_3 0
z_1_3 0
x_1_4 2.5254365575267002e+02
s_1_4 0
z_1_4 0
x_1_5 2.5551960462518036e+02
s_1_5 0
z_1_5 0
x_1_6 0
s_1_6 1.7522417642467190e+00
z_1_6 1
x_1_7 0
s_1_7 1.1611961460439488e+00
z_1_7 1
x_1_8 0
s_1_8 7.7924296310084173e-01
z_1_8 1
x_1_9 0
s_1_9 1.7630306463688612e+00
z_1_9 1
x_1_10 0
s_1_10 1.4596537275938317e+00
z_1_10 1
x_1_11 0
s_1_11 8.2104997073474806e-01
z_1_11 1
x_1_12 0
s_1_12 1.6221401078510098e+00
z_1_12 1
x_1_13 2.5427064490690827e+02
s_1_13 0
z_1_13 0
x_1_14 2.5538582725822926e+02
s_1_14 0
z_1_14 0
x_1_15 2.5025441212207079e+02
s_1_15 0
z_1_15 0
x_1_16 0
s_1_16 1.1077340490046481e+00
z_1_16 1
x_1_17 2.5431866984628141e+02
s_1_17 0
z_1_17 0
x_1_18 2.5358764127362520e+02
s_1_18 0
z_1_18 0
x_1_19 0
s_1_19 1.4379169370513409e+00
z_1_19 1
x_1_20 0
s_1_20 9.9047694724868052e-01
z_1_20 1
x_1_21 0
s_1_21 1.7341302058484871e+00
z_1_21 1
x_1_22 0
s_1_22 8.0548452895891387e-01
z_1_22 1
x_1_23 0
s_1_23 1.0736536703552702e+00
z_1_23 1
x_1_24 2.5513889612636609e+02
s_1_24 0
z_1_24 0
x_1_25 2.5020873947814107e+02
s_1_25 0
z_1_25 0
x_1_26 2.5194683878030628e+02
s_1_26 0
z_1_26 0
x_1_27 2.5496079046092927e+02
s_1_27 0
z_1_27 0
x_1_28 2.5356464045681059e+02
s_1_28 0
z_1_28 0
x_1_29 2.5314301006868482e+02
s_1_29 0
z_1_29 0
x_1_30 0
s_1_30 1.2474864802834418e+00
z_1_30 1
x_1_31 0
s_1_31 1.1213327130317339e+00
z_1_31 1
x_1_32 2.5465367999207228e+02
s_1_32 0
z_1_32 0
x_1_33 2.5194378459174186e+02
s_1_33 0
z_1_33 0
x_1_34 2.5109124774672091e+02
s_1_34 0
z_1_34 0
x_1_35 2.5010690716095269e+02
s_1_35 0
z_1_35 0
x_1_36 0
s_1_36 7.5145707884803414e-01
z_1_36 1
x_1_37 0
s_1_37 1.5004620105028152e+00
z_1_37 1
x_1_38 0
s_1_38 1.1372524386824807e+00
z_1_38 1
x_1_39 2.5107163869403303e+02
s_1_39 0
z_1_39 0
x_1_40 0
s_1_40 1.5780836940612062e+00
z_1_40 1
x_1_41 2.5482642013579607e+02
s_1_41 0
z_1_41 0
x_1_42 0
s_1_42 1.3101459608142250e+00
z_1_42 1
x_1_43 2.5199559796974063e+02
s_1_43 0
z_1_43 0
x_1_44 0
s_1_44 6.2544411505223252e-01
z_1_44 1
x_1_45 2.5467664377577603e+02
s_1_45 0
z_1_45 0
x_1_46 2.5347237424459308e+02
s_1_46 0
z_1_46 0
x_1_47 0
s_1_47 1.6608269636926707e+00
z_1_47 1
x_1_48 2.5452729210071266e+02
s_1_48 0
z_1_48 0
x_1_49 0
s_1_49 8.8602454448118806e-01
z_1_49 1
x_1_50 0
s_1_50 1.1898185518984974e+00
z_1_50 1
x_1_51 0
s_1_51 1.4352689424995333e+00
z_1_51 1
x_1_52 2.5002866338985041e+02
s_1_52 0
z_1_52 0
x_1_53 2.4514197504147887e+02
s_1_53 0
z_1_53 0
x_1_54 0
s_1_54 9.2422822235675994e-01
z_1_54 1
x_1_55 0
s_1_55 0.777615460450761
z_1_55 1
x_1_56 2.5412758021196350e+02
s_1_56 0
z_1_56 0
x_1_57 2.5406339182797819e+02
s_1_57 0
z_1_57 0
x_1_58 0
s_1_58 1.2496741427894449e+00
z_1_58 1
x_1_59 2.5121556013473310e+02
s_1_59 0
z_1_59 0
x_1_60 2.5111350198183209e+02
s_1_60 0
z_1_60 0
x_1_61 2.5203017373383045e+02
s_1_61 0
z_1_61 0
x_1_62 2.4486038745287806e+02
s_1_62 0
z_1_62 0
x_1_63 0
s_1_63 1.0655559076785721e+00
z_1_63 1
x_1_64 0
s_1_64 0.856442219519522
z_1_64 1
x_1_65 2.5052938627079129e+02
s_1_65 0
z_1_65 0
x_1_66 2.5374566690810025e+02
s_1_66 0
z_1_66 0
x_1_67 0
s_1_67 6.7315947572933510e-01
z_1_67 1
x_1_68 2.5503049815818667e+02
s_1_68 0
z_1_68 0
x_1_69 2.4999858039166429e+02
s_1_69 0
z_1_69 0
x_1_70 2.5135552053898573e+02
s_1_70 0
z_1_70 0
x_1_71 2.5342641037516296e+02
s_1_71 0
z_1_71 0
x_1_72 0
s_1_72 1.3165449732478010e+00
z_1_72 1
x_1_73 2.5075645546615124e+02
s_1_73 0
z_1_73 0
x_1_74 2.5349686999619007e+02
s_1_74 0
z_1_74 0
x_1_75 2.5183057452552021e+02
s_1_75 0
z_1_75 0
x_1_76 2.5155711864912882e+02
s_1_76 0
z_1_76 0
x_1_77 0
s_1_77 1.1120110543962483e+00
z_1_77 1
x_1_78 2.5203343184842151e+02
s_1_78 0
z_1_78 0
x_1_79 2.5123381206579506e+02
s_1_79 0
z_1_79 0
x_1_80 0
s_1_80 1.2273953004023497e+00
z_1_80 1
x_1_81 2.5442443164438009e+02
s_1_81 0
z_1_81 0
x_1_82 2.5145342564629391e+02
s_1_82 0
z_1_82 0
x_1_83 2.5503980791661888e+02
s_1_83 0
z_1_83 0
x_1_84 2.5402454571612179e+02
s_1_84 0
z_1_84 0
x_1_85 0
s_1_85 5.6675624877971131e-01
z_1_85 1
x_1_86 0
s_1_86 1.1375965436454862e+00
z_1_86 1
x_1_87 2.5398216965422034e+02
s_1_87 0
z_1_87 0
x_1_88 2.4991436041891575e+02
s_1_88 0
z_1_88 0
x_1_89 0
s_1_89 1.1109902005664480e+00
z_1_89 1
x_1_90 0
s_1_90 1.0115872092574136e+00
z_1_90 1
x_1_91 2.5316173198074102e+02
s_1_91 0
z_1_91 0
x_1_92 2.5500204190332443e+02
s_1_92 0
z_1_92 0
x_1_93 2.5291247356496751e+02
s_1_93 0
z_1_93 0
x_1_94 2.5229453063756227e+02
s_1_94 0
z_1_94 0
x_1_95 0
s_1_95 1.1138193602382671e+00
z_1_95 1
x_1_96 2.4815859400969930e+02
s_1_96 0
z_1_96 0
x_1_97 2.5403174197487533e+02
s_1_97 0
z_1_97 0
x_1_98 2.5516029045172036e+02
s_1_98 0
z_1_98 0
x_1_99 2.5350741673633456e+02
s_1_99 0
z_1_99 0
x_1_100 2.5376892343536019e+02
s_1_100 0
z_1_100 0
x_1_101 0
s_1_101 1.3569636863830965e+00
z_1_101 1
x_1_102 2.5435171373933554e+02
s_1_102 0
z_1_102 0
x_1_103 2.5132104925438762e+02
s_1_103 0
z_1_103 0
x_1_104 0
s_1_104 1.0247296243542223e+00
z_1_104 1
x_1_105 2.5466927078657318e+02
s_1_105 0
z_1_105 0
x_1_106 0
s_1_106 1.4465695514809340e+00
z_1_106 1
x_1_107 0
s_1_107 1.1441507480340078e+00
z_1_107 1
x_1_108 2.5140384703502059e+02
s_1_108 0
z_1_108 0
x_1_109 0
s_1_109 1.2262756572163198e+00
z_1_109 1
x_1_110 2.5230212431191467e+02
s_1_110 0
z_1_110 0
x_1_111 2.5040991935273632e+02
s_1_111 0
z_1_111 0
x_1_112 0
s_1_112 1.9002884326764615e+00
z_1_112 1
x_1_113 2.5276904877275229e+02
s_1_113 0
z_1_113 0
x_1_114 0
s_1_114 8.0552007889491506e-01
z_1_114 1
x_1_115 2.5513702625781298e+02
s_1_115 0
z_1_115 0
x_1_116 0
s_1_116 1.8332093500721385e+00
z_1_116 1
x_1_117 0
s_1_117 7.1366029633514927e-01
z_1_117 1
x_1_118 0
s_1_118 1.5370843123509985e+00
z_1_118 1
x_1_119 0
s_1_119 1.1023315768106841e+00
z_1_119 1
x_1_120 0
s_1_120 1.8264795531285927e+00
z_1_120 1
x_1_121 0
s_1_121 0.927350808866322
z_1_121 1
x_1_122 2.5460904804465827e+02
s_1_122 0
z_1_122 0
x_1_123 0
s_1_123 2.1468382027815096e+00
z_1_123 1
x_1_124 0
s_1_124 1.2875686576589942e+00
z_1_124 1
x_1_125 0
s_1_125 1.9945364349987358e+00
z_1_125 1
x_1_126 0
s_1_126 1.1613648778584320e+00
z_1_126 1
x_1_127 0
s_1_127 8.5137499490519986e-01
z_1_127 1
x_1_128 0
s_1_128 6.6648923594038934e-01
z_1_128 1
x_1_129 2.4981491061858833e+02
s_1_129 0
z_1_129 0
x_1_130 0
s_1_130 1.6089766173972748e+00
z_1_130 1
x_1_131 0
s_1_131 1.5129259975219611e+00
z_1_131 1
x_1_132 2.5355351150920615e+02
s_1_132 0
z_1_132 0
x_1_133 2.5148128677718341e+02
s_1_133 0
z_1_133 0
x_1_134 0
s_1_134 1.5120414970733691e+00
z_1_134 1
x_1_135 0
s_1_135 8.9570210839156061e-01
z_1_135 1
x_1_136 2.5152125695580617e+02
s_1_136 0
z_1_136 0
x_1_137 2.5278001100523397e+02
s_1_137 0
z_1_137 0
x_1_138 0
s_1_138 4.6496636592928553e-01
z_1_138 1
x_1_139 2.5485115591436625e+02
s_1_139 0
z_1_139 0
x_1_140 2.5481121880747378e+02
s_1_140 0
z_1_140 0
x_1_141 0
s_1_141 1.1413927838075324e+00
z_1_141 1
x_1_142 2.5440042380988598e+02
s_1_142 0
z_1_142 0
x_1_143 2.5360796102695167e+02
s_1_143 0
z_1_143 0
x_1_144 0
s_1_144 8.3167033249628730e-01
z_1_144 1
x_1_145 2.4987766112573445e+02
s_1_145 0
z_1_145 0
x_1_146 0
s_1_146 1.7356045076739974e+00
z_1_146 1
x_1_147 2.5358708736114204e+02
s_1_147 0
z_1_147 0
x_1_148 2.5167459029587917e+02
s_1_148 0
z_1_148 0
x_1_149 250.219806779176
s_1_149 0
z_1_149 0
x_1_150 2.5113106095138937e+02
s_1_150 0
z_1_150 0
x_1_151 2.5237272252514958e+02
s_1_151 0
z_1_151 0
x_1_152 0
s_1_152 9.1675674960424658e-01
z_1_152 1
x_1_153 2.5455246466444805e+02
s_1_153 0
z_1_153 0
x_1_154 0
s_1_154 1.6456504292791578e+00
z_1_154 1
x_1_155 2.5513856104761362e+02
s_1_155 0
z_1_155 0
x_1_156 0
s_1_156 1.2284779096225975e+00
z_1_156 1
x_1_157 2.5463311377726495e+02
s_1_157 0
z_1_157 0
x_1_158 2.5142278783163056e+02
s_1_158 0
z_1_158 0
x_1_159 0
s_1_159 1.6531462725833990e+00
z_1_159 1
x_2_0 9.7550357161310123e+04
